Route 1: 0 75 61 92 59 77 25 0
Route 2: 0 96 13 87 84 58 30 0
Route 3: 0 86 9 6 8 48 55 0
Route 4: 0 72 63 94 97 64 28 31 4 54 66 80 50 0
Route 5: 0 82 37 45 56 40 95 76 69 89 44 23 41 0
Route 6: 0 74 3 51 34 81 90 7 83 2 39 0
Route 7: 0 49 14 27 53 35 73 43 68 0
Route 8: 0 70 78 20 99 57 85 22 79 24 36 12 10 0
Route 9: 0 38 47 100 15 60 1 91 0
Route 10: 0 46 67 52 62 32 29 21 19 0
Route 11: 0 16 17 42 26 18 11 5 65 0
Route 12: 0 98 88 71 33 93 0
